61
100
70	7
69	7
68	14
67	9
66	9
65	5
64	7
63	10
62	3
61	12
60	8
59	6
58	8
57	9
56	11
55	7
54	4
53	12
52	11
51	5
50	11
49	10
48	11
47	6
46	9
45	8
44	6
43	7
42	8
41	7
40	6
39	5
38	8
37	7
36	6
35	13
34	7
33	12
32	16
31	6
30	9
29	9
28	10
27	4
26	6
25	3
24	9
23	13
22	9
21	13
20	6
19	4
18	7
17	5
16	9
15	9
14	9
13	7
12	7
11	10
10	9
